plate_width = 30;
n_circuits = 28;
n_shapes = 54;
widths = [9, 9, 9, 9, 4, 4, 1, 1, 4, 3, 3, 12, 12, 14, 2, 2, 8, 8, 12, 12, 6, 6, 2, 2, 3, 3, 3, 3];
lengths = [24, 8, 11, 17, 24, 8, 6, 5, 17, 6, 5, 5, 13, 14, 14, 2, 3, 9, 14, 2, 3, 9, 5, 13, 18, 14, 16, 12];
sizes = [| 9, 24 | 24, 9 | 9, 8 | 8, 9 | 9, 11 | 11, 9 | 9, 17 | 17, 9 | 4, 24 | 24, 4 | 4, 8 | 8, 4 | 1, 6 | 6, 1 | 1, 5 | 5, 1 | 4, 17 | 17, 4 | 3, 6 | 6, 3 | 3, 5 | 5, 3 | 12, 5 | 5, 12 | 12, 13 | 13, 12 | 14, 14 | 2, 14 | 14, 2 | 2, 2 | 8, 3 | 3, 8 | 8, 9 | 9, 8 | 12, 14 | 14, 12 | 12, 2 | 2, 12 | 6, 3 | 3, 6 | 6, 9 | 9, 6 | 2, 5 | 5, 2 | 2, 13 | 13, 2 | 3, 18 | 18, 3 | 3, 14 | 14, 3 | 3, 16 | 16, 3 | 3, 12 | 12, 3 |];
offsets = [| 0, 0 | 0, 0 | 0, 0 | 0, 0 | 0, 0 | 0, 0 | 0, 0 | 0, 0 | 0, 0 | 0, 0 | 0, 0 | 0, 0 | 0, 0 | 0, 0 | 0, 0 | 0, 0 | 0, 0 | 0, 0 | 0, 0 | 0, 0 | 0, 0 | 0, 0 | 0, 0 | 0, 0 | 0, 0 | 0, 0 | 0, 0 | 0, 0 | 0, 0 | 0, 0 | 0, 0 | 0, 0 | 0, 0 | 0, 0 | 0, 0 | 0, 0 | 0, 0 | 0, 0 | 0, 0 | 0, 0 | 0, 0 | 0, 0 | 0, 0 | 0, 0 | 0, 0 | 0, 0 | 0, 0 | 0, 0 | 0, 0 | 0, 0 | 0, 0 | 0, 0 | 0, 0 | 0, 0 |];
shapes = [{1}, {2}, {3}, {4}, {5}, {6}, {7}, {8}, {9}, {10}, {11}, {12}, {13}, {14}, {15}, {16}, {17}, {18}, {19}, {20}, {21}, {22}, {23}, {24}, {25}, {26}, {27}, {28}, {29}, {30}, {31}, {32}, {33}, {34}, {35}, {36}, {37}, {38}, {39}, {40}, {41}, {42}, {43}, {44}, {45}, {46}, {47}, {48}, {49}, {50}, {51}, {52}, {53}, {54}];
valid_shapes = [{1, 2}, {3, 4}, {5, 6}, {8, 7}, {9, 10}, {11, 12}, {13, 14}, {16, 15}, {17, 18}, {19, 20}, {21, 22}, {24, 23}, {25, 26}, {27}, {28, 29}, {30}, {32, 31}, {33, 34}, {35, 36}, {37, 38}, {40, 39}, {41, 42}, {43, 44}, {45, 46}, {48, 47}, {49, 50}, {51, 52}, {53, 54}];